(set-logic QF_S)
(declare-fun var0 () String)
(declare-fun var1 () Int)
(declare-fun var2 () Int)
(declare-fun var3 () String)
(declare-fun var4 () Int)
(declare-fun var5 () Int)
(declare-fun var6 () String)
(declare-fun var7 () String)
(assert (not false))
(assert (str.contains (str.substr var0 var1 var2) (str.substr var3 var4 var5)))
(assert (str.contains var6 var7))
(assert (not false))
(check-sat)